11 27
1 2 1
1 3 1
1 4 0
1 5 1
1 6 0
1 7 0
1 8 0
1 9 0
1 10 1
1 11 0
2 3 0
2 4 1
2 5 0
2 6 1
2 7 0
2 8 1
2 9 0
2 10 1
2 11 1
3 4 1
3 5 0
3 6 0
3 7 0
3 8 0
3 9 1
3 10 1
3 11 1
4 5 0
4 6 1
4 7 0
4 8 0
4 9 1
4 10 1
4 11 1
5 6 1
5 7 0
5 8 0
5 9 0
5 10 0
5 11 0
6 7 1
6 8 1
6 9 0
6 10 0
6 11 1
7 8 1
7 9 1
7 10 0
7 11 1
8 9 1
8 10 1
8 11 0
9 10 0
9 11 0
10 11 1
